<?xml version = "1.0" encoding="UTF-8" standalone="yes"?>
<CPLEXSolution version="1.2">
 <header
   problemName="cplex.lp"
   solutionName="incumbent"
   solutionIndex="-1"
   objectiveValue="2.52"
   solutionTypeValue="3"
   solutionTypeString="primal"
   solutionStatusValue="101"
   solutionStatusString="integer optimal solution"
   solutionMethodString="mip"
   primalFeasible="1"
   dualFeasible="1"
   MIPNodes="0"
   MIPIterations="0"
   writeLevel="1"/>
 <quality
   epInt="1.0000000000000001e-05"
   epRHS="9.9999999999999995e-07"
   maxIntInfeas="0"
   maxPrimalInfeas="0"
   maxX="2.52"
   maxSlack="0"/>
 <linearConstraints>
  <constraint name="cap1" index="0" slack="0"/>
  <constraint name="cap2" index="1" slack="0"/>
  <constraint name="cap3" index="2" slack="0"/>
  <constraint name="cap4" index="3" slack="0"/>
  <constraint name="cap5" index="4" slack="0"/>
  <constraint name="cap6" index="5" slack="0"/>
  <constraint name="cap7" index="6" slack="0"/>
  <constraint name="cap8" index="7" slack="0"/>
  <constraint name="cap9" index="8" slack="0"/>
  <constraint name="cap10" index="9" slack="0"/>
  <constraint name="assign1" index="10" slack="0"/>
  <constraint name="assign2" index="11" slack="0"/>
  <constraint name="assign3" index="12" slack="0"/>
  <constraint name="assign4" index="13" slack="0"/>
  <constraint name="assign5" index="14" slack="0"/>
  <constraint name="assign6" index="15" slack="0"/>
  <constraint name="assign7" index="16" slack="0"/>
  <constraint name="assign8" index="17" slack="0"/>
  <constraint name="assign9" index="18" slack="0"/>
  <constraint name="assign10" index="19" slack="0"/>
 </linearConstraints>
 <variables>
  <variable name="z1" index="0" value="2.52"/>
  <variable name="z2" index="1" value="0"/>
  <variable name="z3" index="2" value="0"/>
  <variable name="z4" index="3" value="0"/>
  <variable name="z5" index="4" value="0"/>
  <variable name="z6" index="5" value="0"/>
  <variable name="z7" index="6" value="0"/>
  <variable name="z8" index="7" value="0"/>
  <variable name="z9" index="8" value="0"/>
  <variable name="z10" index="9" value="0"/>
  <variable name="x11" index="10" value="1"/>
  <variable name="x21" index="11" value="1"/>
  <variable name="x31" index="12" value="1"/>
  <variable name="x41" index="13" value="1"/>
  <variable name="x51" index="14" value="1"/>
  <variable name="x61" index="15" value="1"/>
  <variable name="x71" index="16" value="1"/>
  <variable name="x81" index="17" value="1"/>
  <variable name="x91" index="18" value="1"/>
  <variable name="x101" index="19" value="1"/>
  <variable name="x12" index="20" value="0"/>
  <variable name="x22" index="21" value="0"/>
  <variable name="x32" index="22" value="0"/>
  <variable name="x42" index="23" value="0"/>
  <variable name="x52" index="24" value="0"/>
  <variable name="x62" index="25" value="0"/>
  <variable name="x72" index="26" value="0"/>
  <variable name="x82" index="27" value="0"/>
  <variable name="x92" index="28" value="0"/>
  <variable name="x102" index="29" value="0"/>
  <variable name="x13" index="30" value="0"/>
  <variable name="x23" index="31" value="0"/>
  <variable name="x33" index="32" value="0"/>
  <variable name="x43" index="33" value="0"/>
  <variable name="x53" index="34" value="0"/>
  <variable name="x63" index="35" value="0"/>
  <variable name="x73" index="36" value="0"/>
  <variable name="x83" index="37" value="0"/>
  <variable name="x93" index="38" value="0"/>
  <variable name="x103" index="39" value="0"/>
  <variable name="x14" index="40" value="0"/>
  <variable name="x24" index="41" value="0"/>
  <variable name="x34" index="42" value="0"/>
  <variable name="x44" index="43" value="0"/>
  <variable name="x54" index="44" value="0"/>
  <variable name="x64" index="45" value="0"/>
  <variable name="x74" index="46" value="0"/>
  <variable name="x84" index="47" value="0"/>
  <variable name="x94" index="48" value="0"/>
  <variable name="x104" index="49" value="0"/>
  <variable name="x15" index="50" value="0"/>
  <variable name="x25" index="51" value="0"/>
  <variable name="x35" index="52" value="0"/>
  <variable name="x45" index="53" value="0"/>
  <variable name="x55" index="54" value="0"/>
  <variable name="x65" index="55" value="0"/>
  <variable name="x75" index="56" value="0"/>
  <variable name="x85" index="57" value="0"/>
  <variable name="x95" index="58" value="0"/>
  <variable name="x105" index="59" value="0"/>
  <variable name="x16" index="60" value="0"/>
  <variable name="x26" index="61" value="0"/>
  <variable name="x36" index="62" value="0"/>
  <variable name="x46" index="63" value="0"/>
  <variable name="x56" index="64" value="0"/>
  <variable name="x66" index="65" value="0"/>
  <variable name="x76" index="66" value="0"/>
  <variable name="x86" index="67" value="0"/>
  <variable name="x96" index="68" value="0"/>
  <variable name="x106" index="69" value="0"/>
  <variable name="x17" index="70" value="0"/>
  <variable name="x27" index="71" value="0"/>
  <variable name="x37" index="72" value="0"/>
  <variable name="x47" index="73" value="0"/>
  <variable name="x57" index="74" value="0"/>
  <variable name="x67" index="75" value="0"/>
  <variable name="x77" index="76" value="0"/>
  <variable name="x87" index="77" value="0"/>
  <variable name="x97" index="78" value="0"/>
  <variable name="x107" index="79" value="0"/>
  <variable name="x18" index="80" value="0"/>
  <variable name="x28" index="81" value="0"/>
  <variable name="x38" index="82" value="0"/>
  <variable name="x48" index="83" value="0"/>
  <variable name="x58" index="84" value="0"/>
  <variable name="x68" index="85" value="0"/>
  <variable name="x78" index="86" value="0"/>
  <variable name="x88" index="87" value="0"/>
  <variable name="x98" index="88" value="0"/>
  <variable name="x108" index="89" value="0"/>
  <variable name="x19" index="90" value="0"/>
  <variable name="x29" index="91" value="0"/>
  <variable name="x39" index="92" value="0"/>
  <variable name="x49" index="93" value="0"/>
  <variable name="x59" index="94" value="0"/>
  <variable name="x69" index="95" value="0"/>
  <variable name="x79" index="96" value="0"/>
  <variable name="x89" index="97" value="0"/>
  <variable name="x99" index="98" value="0"/>
  <variable name="x109" index="99" value="0"/>
  <variable name="x110" index="100" value="0"/>
  <variable name="x210" index="101" value="0"/>
  <variable name="x310" index="102" value="0"/>
  <variable name="x410" index="103" value="0"/>
  <variable name="x510" index="104" value="0"/>
  <variable name="x610" index="105" value="0"/>
  <variable name="x710" index="106" value="0"/>
  <variable name="x810" index="107" value="0"/>
  <variable name="x910" index="108" value="0"/>
  <variable name="x1010" index="109" value="0"/>
 </variables>
 <objectiveValues>
  <objective index="0" name="obj" value="2.52"/>
 </objectiveValues>
</CPLEXSolution>
